c ind 159 158 157 156 155 154 153 152 151 150 149 148 147 146 145 144 143 142 141 140 139 138 137 136 135 134 133 132 131 130 129 128  0
c ind 96 95 94 93 92 91 90 89 88 87 86 85 84 83 82 81 80 79 78 77 76 75 74 73 72 71 70 69 68 67 66 65  0
c ind 537 536 535 534 533 532 531 530 529 528 527 526 525 524 523 522 521 520 519 518 517 516 515 514 513 512 511 510 509 508 507 506  0
c ind 474 473 472 471 470 469 468 467 466 465 464 463 462 461 460 459 458 457 456 455 454 453 452 451 450 449 448 447 446 445 444 443  0
c ind 411 410 409 408 407 406 405 404 403 402 401 400 399 398 397 396 395 394 393 392 391 390 389 388 387 386 385 384 383 382 381 380  0
c ind 33 32 31 30 29 28 27 26 25 24 23 22 21 20 19 18 17 16 15 14 13 12 11 10 9 8 7 6 5 4 3 2  0
c ind 285 284 283 282 281 280 279 278 277 276 275 274 273 272 271 270 269 268 267 266 265 264 263 262 261 260 259 258 257 256 255 254  0
c ind 222 221 220 219 218 217 216 215 214 213 212 211 210 209 208 207 206 205 204 203 202 201 200 199 198 197 196 195 194 193 192 191  0
c ind 348 347 346 345 344 343 342 341 340 339 338 337 336 335 334 333 332 331 330 329 328 327 326 325 324 323 322 321 320 319 318 317  0
p cnf 568 742
1 0
-2 0
-3 0
-4 0
-5 0
-6 0
-7 0
-8 0
-9 0
-10 0
-11 0
-12 0
-13 0
-14 0
-15 0
-16 0
-17 0
-18 0
-19 0
-20 0
-21 0
-22 0
-23 0
-24 0
-25 0
-26 0
-27 0
-28 0
-29 0
-30 0
-31 0
-32 0
-33 0
34 0
35 0
36 0
37 0
38 0
39 0
40 0
41 0
42 0
43 0
44 0
45 0
46 0
47 0
48 0
49 0
50 0
51 0
52 0
53 0
54 0
55 0
56 0
57 0
58 0
59 0
60 0
61 0
62 0
63 0
64 0
-127 0
-190 0
-253 0
-316 0
-317 0
-318 0
-319 0
-320 0
-321 0
-322 0
-323 0
-324 0
-325 0
-326 0
-327 0
-328 0
-329 0
-330 0
-331 0
-332 0
-333 0
-334 0
-335 0
-336 0
-337 0
-338 0
-339 0
-340 0
-341 0
-342 0
-343 0
-344 0
-345 0
-346 0
-347 0
-348 0
349 0
350 0
351 0
352 0
353 0
354 0
355 0
356 0
357 0
358 0
359 0
360 0
361 0
362 0
363 0
364 0
365 0
366 0
367 0
368 0
369 0
370 0
371 0
372 0
373 0
374 0
375 0
376 0
377 0
378 0
379 0
-380 0
-381 0
-382 0
-383 0
-384 0
-385 0
-386 0
-387 0
-388 0
-389 0
-390 0
-391 0
-392 0
-393 0
-394 0
-395 0
-396 0
-397 0
-398 0
-399 0
-400 0
-401 0
-402 0
-403 0
-404 0
-405 0
-406 0
-407 0
-408 0
-409 0
-410 0
-411 0
412 0
413 0
414 0
415 0
416 0
417 0
418 0
419 0
420 0
421 0
422 0
423 0
424 0
425 0
426 0
427 0
428 0
429 0
430 0
431 0
432 0
433 0
434 0
435 0
436 0
437 0
438 0
439 0
440 0
441 0
442 0
-505 0
-568 0
-65 -97 0
65 66 97 0
-66 -97 0
-67 -98 0
67 -97 98 0
-68 -99 0
68 -98 99 0
-69 -100 0
69 -99 100 0
-70 -101 0
70 -100 101 0
-71 -102 0
71 -101 102 0
-72 -103 0
72 -102 103 0
-73 -104 0
73 -103 104 0
-74 -105 0
74 -104 105 0
-75 -106 0
75 -105 106 0
-76 -107 0
76 -106 107 0
-77 -108 0
77 -107 108 0
-78 -109 0
78 -108 109 0
-79 -110 0
79 -109 110 0
-80 -111 0
80 -110 111 0
-81 -112 0
81 -111 112 0
-82 -113 0
82 -112 113 0
-83 -114 0
83 -113 114 0
-84 -115 0
84 -114 115 0
-85 -116 0
85 -115 116 0
-86 -117 0
86 -116 117 0
-87 -118 0
87 -117 118 0
-88 -119 0
88 -118 119 0
-89 -120 0
89 -119 120 0
-90 -121 0
90 -120 121 0
-91 -122 0
91 -121 122 0
-92 -123 0
92 -122 123 0
-93 -124 0
93 -123 124 0
-94 -125 0
94 -124 125 0
-95 -126 0
95 -125 126 0
96 -126 0
97 -98 0
98 -99 0
99 -100 0
100 -101 0
101 -102 0
102 -103 0
103 -104 0
104 -105 0
105 -106 0
106 -107 0
107 -108 0
108 -109 0
109 -110 0
110 -111 0
111 -112 0
112 -113 0
113 -114 0
114 -115 0
115 -116 0
116 -117 0
117 -118 0
118 -119 0
119 -120 0
120 -121 0
121 -122 0
122 -123 0
123 -124 0
124 -125 0
125 -126 0
-128 -160 0
128 129 160 0
-129 -160 0
-130 -161 0
130 -160 161 0
-131 -162 0
131 -161 162 0
-132 -163 0
132 -162 163 0
-133 -164 0
133 -163 164 0
-134 -165 0
134 -164 165 0
-135 -166 0
135 -165 166 0
-136 -167 0
136 -166 167 0
-137 -168 0
137 -167 168 0
-138 -169 0
138 -168 169 0
-139 -170 0
139 -169 170 0
-140 -171 0
140 -170 171 0
-141 -172 0
141 -171 172 0
-142 -173 0
142 -172 173 0
-143 -174 0
143 -173 174 0
-144 -175 0
144 -174 175 0
-145 -176 0
145 -175 176 0
-146 -177 0
146 -176 177 0
-147 -178 0
147 -177 178 0
-148 -179 0
148 -178 179 0
-149 -180 0
149 -179 180 0
-150 -181 0
150 -180 181 0
-151 -182 0
151 -181 182 0
-152 -183 0
152 -182 183 0
-153 -184 0
153 -183 184 0
-154 -185 0
154 -184 185 0
-155 -186 0
155 -185 186 0
-156 -187 0
156 -186 187 0
-157 -188 0
157 -187 188 0
-158 -189 0
158 -188 189 0
159 -189 0
160 -161 0
161 -162 0
162 -163 0
163 -164 0
164 -165 0
165 -166 0
166 -167 0
167 -168 0
168 -169 0
169 -170 0
170 -171 0
171 -172 0
172 -173 0
173 -174 0
174 -175 0
175 -176 0
176 -177 0
177 -178 0
178 -179 0
179 -180 0
180 -181 0
181 -182 0
182 -183 0
183 -184 0
184 -185 0
185 -186 0
186 -187 0
187 -188 0
188 -189 0
-191 -223 0
191 192 223 0
-192 -223 0
-193 -224 0
193 -223 224 0
-194 -225 0
194 -224 225 0
-195 -226 0
195 -225 226 0
-196 -227 0
196 -226 227 0
-197 -228 0
197 -227 228 0
-198 -229 0
198 -228 229 0
-199 -230 0
199 -229 230 0
-200 -231 0
200 -230 231 0
-201 -232 0
201 -231 232 0
-202 -233 0
202 -232 233 0
-203 -234 0
203 -233 234 0
-204 -235 0
204 -234 235 0
-205 -236 0
205 -235 236 0
-206 -237 0
206 -236 237 0
-207 -238 0
207 -237 238 0
-208 -239 0
208 -238 239 0
-209 -240 0
209 -239 240 0
-210 -241 0
210 -240 241 0
-211 -242 0
211 -241 242 0
-212 -243 0
212 -242 243 0
-213 -244 0
213 -243 244 0
-214 -245 0
214 -244 245 0
-215 -246 0
215 -245 246 0
-216 -247 0
216 -246 247 0
-217 -248 0
217 -247 248 0
-218 -249 0
218 -248 249 0
-219 -250 0
219 -249 250 0
-220 -251 0
220 -250 251 0
-221 -252 0
221 -251 252 0
222 -252 0
223 -224 0
224 -225 0
225 -226 0
226 -227 0
227 -228 0
228 -229 0
229 -230 0
230 -231 0
231 -232 0
232 -233 0
233 -234 0
234 -235 0
235 -236 0
236 -237 0
237 -238 0
238 -239 0
239 -240 0
240 -241 0
241 -242 0
242 -243 0
243 -244 0
244 -245 0
245 -246 0
246 -247 0
247 -248 0
248 -249 0
249 -250 0
250 -251 0
251 -252 0
-254 -286 0
254 255 286 0
-255 -286 0
-256 -287 0
256 -286 287 0
-257 -288 0
257 -287 288 0
-258 -289 0
258 -288 289 0
-259 -290 0
259 -289 290 0
-260 -291 0
260 -290 291 0
-261 -292 0
261 -291 292 0
-262 -293 0
262 -292 293 0
-263 -294 0
263 -293 294 0
-264 -295 0
264 -294 295 0
-265 -296 0
265 -295 296 0
-266 -297 0
266 -296 297 0
-267 -298 0
267 -297 298 0
-268 -299 0
268 -298 299 0
-269 -300 0
269 -299 300 0
-270 -301 0
270 -300 301 0
-271 -302 0
271 -301 302 0
-272 -303 0
272 -302 303 0
-273 -304 0
273 -303 304 0
-274 -305 0
274 -304 305 0
-275 -306 0
275 -305 306 0
-276 -307 0
276 -306 307 0
-277 -308 0
277 -307 308 0
-278 -309 0
278 -308 309 0
-279 -310 0
279 -309 310 0
-280 -311 0
280 -310 311 0
-281 -312 0
281 -311 312 0
-282 -313 0
282 -312 313 0
-283 -314 0
283 -313 314 0
-284 -315 0
284 -314 315 0
285 -315 0
286 -287 0
287 -288 0
288 -289 0
289 -290 0
290 -291 0
291 -292 0
292 -293 0
293 -294 0
294 -295 0
295 -296 0
296 -297 0
297 -298 0
298 -299 0
299 -300 0
300 -301 0
301 -302 0
302 -303 0
303 -304 0
304 -305 0
305 -306 0
306 -307 0
307 -308 0
308 -309 0
309 -310 0
310 -311 0
311 -312 0
312 -313 0
313 -314 0
314 -315 0
-443 -475 0
443 444 475 0
-444 -475 0
-445 -476 0
445 -475 476 0
-446 -477 0
446 -476 477 0
-447 -478 0
447 -477 478 0
-448 -479 0
448 -478 479 0
-449 -480 0
449 -479 480 0
-450 -481 0
450 -480 481 0
-451 -482 0
451 -481 482 0
-452 -483 0
452 -482 483 0
-453 -484 0
453 -483 484 0
-454 -485 0
454 -484 485 0
-455 -486 0
455 -485 486 0
-456 -487 0
456 -486 487 0
-457 -488 0
457 -487 488 0
-458 -489 0
458 -488 489 0
-459 -490 0
459 -489 490 0
-460 -491 0
460 -490 491 0
-461 -492 0
461 -491 492 0
-462 -493 0
462 -492 493 0
-463 -494 0
463 -493 494 0
-464 -495 0
464 -494 495 0
-465 -496 0
465 -495 496 0
-466 -497 0
466 -496 497 0
-467 -498 0
467 -497 498 0
-468 -499 0
468 -498 499 0
-469 -500 0
469 -499 500 0
-470 -501 0
470 -500 501 0
-471 -502 0
471 -501 502 0
-472 -503 0
472 -502 503 0
-473 -504 0
473 -503 504 0
474 -504 0
475 -476 0
476 -477 0
477 -478 0
478 -479 0
479 -480 0
480 -481 0
481 -482 0
482 -483 0
483 -484 0
484 -485 0
485 -486 0
486 -487 0
487 -488 0
488 -489 0
489 -490 0
490 -491 0
491 -492 0
492 -493 0
493 -494 0
494 -495 0
495 -496 0
496 -497 0
497 -498 0
498 -499 0
499 -500 0
500 -501 0
501 -502 0
502 -503 0
503 -504 0
-506 -538 0
506 507 538 0
-507 -538 0
-508 -539 0
508 -538 539 0
-509 -540 0
509 -539 540 0
-510 -541 0
510 -540 541 0
-511 -542 0
511 -541 542 0
-512 -543 0
512 -542 543 0
-513 -544 0
513 -543 544 0
-514 -545 0
514 -544 545 0
-515 -546 0
515 -545 546 0
-516 -547 0
516 -546 547 0
-517 -548 0
517 -547 548 0
-518 -549 0
518 -548 549 0
-519 -550 0
519 -549 550 0
-520 -551 0
520 -550 551 0
-521 -552 0
521 -551 552 0
-522 -553 0
522 -552 553 0
-523 -554 0
523 -553 554 0
-524 -555 0
524 -554 555 0
-525 -556 0
525 -555 556 0
-526 -557 0
526 -556 557 0
-527 -558 0
527 -557 558 0
-528 -559 0
528 -558 559 0
-529 -560 0
529 -559 560 0
-530 -561 0
530 -560 561 0
-531 -562 0
531 -561 562 0
-532 -563 0
532 -562 563 0
-533 -564 0
533 -563 564 0
-534 -565 0
534 -564 565 0
-535 -566 0
535 -565 566 0
-536 -567 0
536 -566 567 0
537 -567 0
538 -539 0
539 -540 0
540 -541 0
541 -542 0
542 -543 0
543 -544 0
544 -545 0
545 -546 0
546 -547 0
547 -548 0
548 -549 0
549 -550 0
550 -551 0
551 -552 0
552 -553 0
553 -554 0
554 -555 0
555 -556 0
556 -557 0
557 -558 0
558 -559 0
559 -560 0
560 -561 0
561 -562 0
562 -563 0
563 -564 0
564 -565 0
565 -566 0
566 -567 0
